NAME          COPTPROB
OBJSENSE
  MIN
ROWS
 N  __OBJ___
 L  C324    
 L  C1123   
 L  C1525   
 L  C1602   
 L  C1737   
 L  C2975   
 L  C4068   
 L  C4637   
 L  C5087   
 L  C6165   
 L  C6372   
 L  C6636   
COLUMNS
    MARKER    'MARKER'                 'INTORG'
    x774      __OBJ___  -1
    x774      C324      1
    x774      C1123     1
    x873      __OBJ___  -1
    x873      C4068     1
    x873      C5087     1
    x889      __OBJ___  -1
    x889      C4637     1
    x889      C6372     1
    x895      __OBJ___  -1
    x895      C1737     1
    x895      C5087     1
    x1883     __OBJ___  -1
    x1883     C1525     1
    x1883     C1602     1
    x3052     __OBJ___  -1
    x3052     C2975     1
    x3052     C4068     1
    x3207     __OBJ___  -1
    x3207     C2975     1
    x3207     C6165     1
    x3384     __OBJ___  -1
    x3384     C1123     1
    x3384     C6636     1
    x4240     __OBJ___  -1
    x4240     C324      1
    x4240     C6165     1
    x4348     __OBJ___  -1
    x4348     C1602     1
    x4348     C6372     1
    x4522     __OBJ___  -1
    x4522     C4637     1
    x4522     C6636     1
    x4550     __OBJ___  -1
    x4550     C1525     1
    x4550     C1737     1
    MARKER    'MARKER'                 'INTEND'
RHS
    RHS       __OBJ___  2769
    RHS       C324      1
    RHS       C1123     1
    RHS       C1525     1
    RHS       C1602     1
    RHS       C1737     1
    RHS       C2975     1
    RHS       C4068     1
    RHS       C4637     1
    RHS       C5087     1
    RHS       C6165     1
    RHS       C6372     1
    RHS       C6636     1
BOUNDS
 UP BOUND     x774      1
 UP BOUND     x873      1
 UP BOUND     x889      1
 UP BOUND     x895      1
 UP BOUND     x1883     1
 UP BOUND     x3052     1
 UP BOUND     x3207     1
 UP BOUND     x3384     1
 UP BOUND     x4240     1
 UP BOUND     x4348     1
 UP BOUND     x4522     1
 UP BOUND     x4550     1
ENDATA
